\ Model MTZ_MODEL
\ LP format - for model browsing. Use MPS format to capture full model detail.
Minimize
  p[0,1] + p[0,2] + p[0,3] + p[0,4] + p[1,0] + p[1,2] + p[1,3] + p[1,4]
   + p[2,0] + p[2,1] + p[2,3] + p[2,4] + p[3,0] + p[3,1] + p[3,2] + p[3,4]
   + p[4,0] + p[4,1] + p[4,2] + p[4,3] + dc[0] + dc[1] + dc[2] + dc[3]
   + dc[4] + 0 difc[0,0] + 0 difc[0,1] + 0 difc[1,0] + 0 difc[1,1]
   + 0 difc[2,0] + 0 difc[2,1] + 0 difc[3,0] + 0 difc[3,1] + 0 difc[4,0]
   + 0 difc[4,1]
Subject To
 p2: p[0,1] - 59.28512354231327 z[0,1] >= 0
 p3: p[0,1] - 73.22098253518463 z[0,1] - dcc[0,1] >= -73.22098253518463
 R2: dcc[0,1] <= 73.22098253518463
 R3: x[0,1,0] - x[1,0,0] + dif[0,1,0] >= 0
 R4: - x[0,1,0] + x[1,0,0] + dif[0,1,0] >= 0
 R5: x[0,1,1] - x[1,0,1] + dif[0,1,1] >= 0
 R6: - x[0,1,1] + x[1,0,1] + dif[0,1,1] >= 0
 p2: p[0,2] - 37.72744564335681 z[0,2] >= 0
 p3: p[0,2] - 61.26793414946955 z[0,2] - dcc[0,2] >= -61.26793414946955
 R9: dcc[0,2] <= 61.26793414946955
 R10: x[0,1,0] - x[2,0,0] + dif[0,2,0] >= 0
 R11: - x[0,1,0] + x[2,0,0] + dif[0,2,0] >= 0
 R12: x[0,1,1] - x[2,0,1] + dif[0,2,1] >= 0
 R13: - x[0,1,1] + x[2,0,1] + dif[0,2,1] >= 0
 p2: p[0,3] - 55.40073427911878 z[0,3] >= 0
 p3: p[0,3] - 72.3399130722599 z[0,3] - dcc[0,3] >= -72.3399130722599
 R16: dcc[0,3] <= 72.3399130722599
 R17: x[0,1,0] - x[3,0,0] + dif[0,3,0] >= 0
 R18: - x[0,1,0] + x[3,0,0] + dif[0,3,0] >= 0
 R19: x[0,1,1] - x[3,0,1] + dif[0,3,1] >= 0
 R20: - x[0,1,1] + x[3,0,1] + dif[0,3,1] >= 0
 p2: p[0,4] - 15.12187327066866 z[0,4] >= 0
 p3: p[0,4] - 29.73584963664036 z[0,4] - dcc[0,4] >= -29.73584963664036
 R23: dcc[0,4] <= 29.73584963664036
 R24: x[0,1,0] - x[4,0,0] + dif[0,4,0] >= 0
 R25: - x[0,1,0] + x[4,0,0] + dif[0,4,0] >= 0
 R26: x[0,1,1] - x[4,0,1] + dif[0,4,1] >= 0
 R27: - x[0,1,1] + x[4,0,1] + dif[0,4,1] >= 0
 p2: p[1,0] - 59.28512354231327 z[1,0] >= 0
 p3: p[1,0] - 73.22098253518463 z[1,0] - dcc[1,0] >= -73.22098253518463
 R30: dcc[1,0] <= 73.22098253518463
 R31: - x[0,0,0] + x[1,1,0] + dif[1,0,0] >= 0
 R32: x[0,0,0] - x[1,1,0] + dif[1,0,0] >= 0
 R33: - x[0,0,1] + x[1,1,1] + dif[1,0,1] >= 0
 R34: x[0,0,1] - x[1,1,1] + dif[1,0,1] >= 0
 p2: p[1,2] - 48.15311001931457 z[1,2] >= 0
 p3: p[1,2] - 76.81380932004527 z[1,2] - dcc[1,2] >= -76.81380932004527
 R37: dcc[1,2] <= 76.81380932004527
 R38: x[1,1,0] - x[2,0,0] + dif[1,2,0] >= 0
 R39: - x[1,1,0] + x[2,0,0] + dif[1,2,0] >= 0
 R40: x[1,1,1] - x[2,0,1] + dif[1,2,1] >= 0
 R41: - x[1,1,1] + x[2,0,1] + dif[1,2,1] >= 0
 p2: p[1,3] - 64.96242408316353 z[1,3] >= 0
 p3: p[1,3] - 82.55551383831137 z[1,3] - dcc[1,3] >= -82.55551383831137
 R44: dcc[1,3] <= 82.55551383831137
 R45: x[1,1,0] - x[3,0,0] + dif[1,3,0] >= 0
 R46: - x[1,1,0] + x[3,0,0] + dif[1,3,0] >= 0
 R47: x[1,1,1] - x[3,0,1] + dif[1,3,1] >= 0
 R48: - x[1,1,1] + x[3,0,1] + dif[1,3,1] >= 0
 p2: p[1,4] - 52.87398413554853 z[1,4] >= 0
 p3: p[1,4] - 64.1164154832622 z[1,4] - dcc[1,4] >= -64.1164154832622
 R51: dcc[1,4] <= 64.1164154832622
 R52: x[1,1,0] - x[4,0,0] + dif[1,4,0] >= 0
 R53: - x[1,1,0] + x[4,0,0] + dif[1,4,0] >= 0
 R54: x[1,1,1] - x[4,0,1] + dif[1,4,1] >= 0
 R55: - x[1,1,1] + x[4,0,1] + dif[1,4,1] >= 0
 p2: p[2,0] - 37.72744564335681 z[2,0] >= 0
 p3: p[2,0] - 61.26793414946955 z[2,0] - dcc[2,0] >= -61.26793414946955
 R58: dcc[2,0] <= 61.26793414946955
 R59: - x[0,0,0] + x[2,1,0] + dif[2,0,0] >= 0
 R60: x[0,0,0] - x[2,1,0] + dif[2,0,0] >= 0
 R61: - x[0,0,1] + x[2,1,1] + dif[2,0,1] >= 0
 R62: x[0,0,1] - x[2,1,1] + dif[2,0,1] >= 0
 p2: p[2,1] - 48.15311001931457 z[2,1] >= 0
 p3: p[2,1] - 76.81380932004527 z[2,1] - dcc[2,1] >= -76.81380932004527
 R65: dcc[2,1] <= 76.81380932004527
 R66: - x[1,0,0] + x[2,1,0] + dif[2,1,0] >= 0
 R67: x[1,0,0] - x[2,1,0] + dif[2,1,0] >= 0
 R68: - x[1,0,1] + x[2,1,1] + dif[2,1,1] >= 0
 R69: x[1,0,1] - x[2,1,1] + dif[2,1,1] >= 0
 p2: p[2,3] - 4.403748316107118 z[2,3] >= 0
 p3: p[2,3] - 34.06404313966149 z[2,3] - dcc[2,3] >= -34.06404313966149
 R72: dcc[2,3] <= 34.06404313966149
 R73: x[2,1,0] - x[3,0,0] + dif[2,3,0] >= 0
 R74: - x[2,1,0] + x[3,0,0] + dif[2,3,0] >= 0
 R75: x[2,1,1] - x[3,0,1] + dif[2,3,1] >= 0
 R76: - x[2,1,1] + x[3,0,1] + dif[2,3,1] >= 0
 p2: p[2,4] - 12.92656669332705 z[2,4] >= 0
 p3: p[2,4] - 45.99052074341979 z[2,4] - dcc[2,4] >= -45.99052074341979
 R79: dcc[2,4] <= 45.99052074341979
 R80: x[2,1,0] - x[4,0,0] + dif[2,4,0] >= 0
 R81: - x[2,1,0] + x[4,0,0] + dif[2,4,0] >= 0
 R82: x[2,1,1] - x[4,0,1] + dif[2,4,1] >= 0
 R83: - x[2,1,1] + x[4,0,1] + dif[2,4,1] >= 0
 p2: p[3,0] - 55.40073427911878 z[3,0] >= 0
 p3: p[3,0] - 72.3399130722599 z[3,0] - dcc[3,0] >= -72.3399130722599
 R86: dcc[3,0] <= 72.3399130722599
 R87: - x[0,0,0] + x[3,1,0] + dif[3,0,0] >= 0
 R88: x[0,0,0] - x[3,1,0] + dif[3,0,0] >= 0
 R89: - x[0,0,1] + x[3,1,1] + dif[3,0,1] >= 0
 R90: x[0,0,1] - x[3,1,1] + dif[3,0,1] >= 0
 p2: p[3,1] - 64.96242408316353 z[3,1] >= 0
 p3: p[3,1] - 82.55551383831137 z[3,1] - dcc[3,1] >= -82.55551383831137
 R93: dcc[3,1] <= 82.55551383831137
 R94: - x[1,0,0] + x[3,1,0] + dif[3,1,0] >= 0
 R95: x[1,0,0] - x[3,1,0] + dif[3,1,0] >= 0
 R96: - x[1,0,1] + x[3,1,1] + dif[3,1,1] >= 0
 R97: x[1,0,1] - x[3,1,1] + dif[3,1,1] >= 0
 p2: p[3,2] - 4.403748316107118 z[3,2] >= 0
 p3: p[3,2] - 34.06404313966149 z[3,2] - dcc[3,2] >= -34.06404313966149
 R100: dcc[3,2] <= 34.06404313966149
 R101: - x[2,0,0] + x[3,1,0] + dif[3,2,0] >= 0
 R102: x[2,0,0] - x[3,1,0] + dif[3,2,0] >= 0
 R103: - x[2,0,1] + x[3,1,1] + dif[3,2,1] >= 0
 R104: x[2,0,1] - x[3,1,1] + dif[3,2,1] >= 0
 p2: p[3,4] - 31.26662686016265 z[3,4] >= 0
 p3: p[3,4] - 57.37700169472002 z[3,4] - dcc[3,4] >= -57.37700169472002
 R107: dcc[3,4] <= 57.37700169472002
 R108: x[3,1,0] - x[4,0,0] + dif[3,4,0] >= 0
 R109: - x[3,1,0] + x[4,0,0] + dif[3,4,0] >= 0
 R110: x[3,1,1] - x[4,0,1] + dif[3,4,1] >= 0
 R111: - x[3,1,1] + x[4,0,1] + dif[3,4,1] >= 0
 p2: p[4,0] - 15.12187327066866 z[4,0] >= 0
 p3: p[4,0] - 29.73584963664036 z[4,0] - dcc[4,0] >= -29.73584963664036
 R114: dcc[4,0] <= 29.73584963664036
 R115: - x[0,0,0] + x[4,1,0] + dif[4,0,0] >= 0
 R116: x[0,0,0] - x[4,1,0] + dif[4,0,0] >= 0
 R117: - x[0,0,1] + x[4,1,1] + dif[4,0,1] >= 0
 R118: x[0,0,1] - x[4,1,1] + dif[4,0,1] >= 0
 p2: p[4,1] - 52.87398413554853 z[4,1] >= 0
 p3: p[4,1] - 64.1164154832622 z[4,1] - dcc[4,1] >= -64.1164154832622
 R121: dcc[4,1] <= 64.1164154832622
 R122: - x[1,0,0] + x[4,1,0] + dif[4,1,0] >= 0
 R123: x[1,0,0] - x[4,1,0] + dif[4,1,0] >= 0
 R124: - x[1,0,1] + x[4,1,1] + dif[4,1,1] >= 0
 R125: x[1,0,1] - x[4,1,1] + dif[4,1,1] >= 0
 p2: p[4,2] - 12.92656669332705 z[4,2] >= 0
 p3: p[4,2] - 45.99052074341979 z[4,2] - dcc[4,2] >= -45.99052074341979
 R128: dcc[4,2] <= 45.99052074341979
 R129: - x[2,0,0] + x[4,1,0] + dif[4,2,0] >= 0
 R130: x[2,0,0] - x[4,1,0] + dif[4,2,0] >= 0
 R131: - x[2,0,1] + x[4,1,1] + dif[4,2,1] >= 0
 R132: x[2,0,1] - x[4,1,1] + dif[4,2,1] >= 0
 p2: p[4,3] - 31.26662686016265 z[4,3] >= 0
 p3: p[4,3] - 57.37700169472002 z[4,3] - dcc[4,3] >= -57.37700169472002
 R135: dcc[4,3] <= 57.37700169472002
 R136: - x[3,0,0] + x[4,1,0] + dif[4,3,0] >= 0
 R137: x[3,0,0] - x[4,1,0] + dif[4,3,0] >= 0
 R138: - x[3,0,1] + x[4,1,1] + dif[4,3,1] >= 0
 R139: x[3,0,1] - x[4,1,1] + dif[4,3,1] >= 0
 R140: z[0,1] + z[0,2] + z[0,3] + z[0,4] = 1
 R141: z[1,0] + z[1,2] + z[1,3] + z[1,4] = 1
 R142: z[2,0] + z[2,1] + z[2,3] + z[2,4] = 1
 R143: z[3,0] + z[3,1] + z[3,2] + z[3,4] = 1
 R144: z[4,0] + z[4,1] + z[4,2] + z[4,3] = 1
 R145: z[1,0] + z[2,0] + z[3,0] + z[4,0] = 1
 R146: z[0,1] + z[2,1] + z[3,1] + z[4,1] = 1
 R147: z[0,2] + z[1,2] + z[3,2] + z[4,2] = 1
 R148: z[0,3] + z[1,3] + z[2,3] + z[4,3] = 1
 R149: z[0,4] + z[1,4] + z[2,4] + z[3,4] = 1
 rest7: z[0,1] + z[1,0] <= 1
 rest7: z[0,2] + z[2,0] <= 1
 rest7: z[0,3] + z[3,0] <= 1
 rest7: z[0,4] + z[4,0] <= 1
 rest7: z[0,1] + z[1,0] <= 1
 rest7: z[1,2] + z[2,1] <= 1
 rest7: z[1,3] + z[3,1] <= 1
 rest7: z[1,4] + z[4,1] <= 1
 rest7: z[0,2] + z[2,0] <= 1
 rest7: z[1,2] + z[2,1] <= 1
 rest7: z[2,3] + z[3,2] <= 1
 rest7: z[2,4] + z[4,2] <= 1
 rest7: z[0,3] + z[3,0] <= 1
 rest7: z[1,3] + z[3,1] <= 1
 rest7: z[2,3] + z[3,2] <= 1
 rest7: z[3,4] + z[4,3] <= 1
 rest7: z[0,4] + z[4,0] <= 1
 rest7: z[1,4] + z[4,1] <= 1
 rest7: z[2,4] + z[4,2] <= 1
 rest7: z[3,4] + z[4,3] <= 1
 R170: 5 z[1,2] + sc[1] - sc[2] <= 4
 R171: 5 z[1,3] + sc[1] - sc[3] <= 4
 R172: 5 z[1,4] + sc[1] - sc[4] <= 4
 R173: 5 z[2,1] - sc[1] + sc[2] <= 4
 R174: 5 z[2,3] + sc[2] - sc[3] <= 4
 R175: 5 z[2,4] + sc[2] - sc[4] <= 4
 R176: 5 z[3,1] - sc[1] + sc[3] <= 4
 R177: 5 z[3,2] - sc[2] + sc[3] <= 4
 R178: 5 z[3,4] + sc[3] - sc[4] <= 4
 R179: 5 z[4,1] - sc[1] + sc[4] <= 4
 R180: 5 z[4,2] - sc[2] + sc[4] <= 4
 R181: 5 z[4,3] - sc[3] + sc[4] <= 4
 rest10: sc[0] = 0
 rest11: sc[1] >= 1
 rest11: sc[2] >= 1
 rest11: sc[3] >= 1
 rest11: sc[4] >= 1
 u0: landa[0,0] - landa[0,1] + min[0] - max[0] = 0
 u1: min[0] + max[0] = 1
 u2: u[0] + max[0] <= 1
 u3: - u[0] + min[0] <= 0
 R191: dc[0] = 10.60642658698018
 R192: landa[0,0] - sublanda[0,0,1] - 2 s[0,0,0] >= -1
 R193: landa[0,0] - sublanda[0,0,1] + 2 s[0,0,0] <= 3
 R194: sublanda[0,0,0] - s[0,0,0] <= 0
 R195: sublanda[0,0,1] - s[0,0,0] <= 0
 R196: s[0,0,0] = 1
 R197: sublanda[0,0,0] + sublanda[0,0,1] = 1
 seg1: x[0,0,0] - 82.08214939060309 sublanda[0,0,0]
   - 71.65051361408686 sublanda[0,0,1] = 0
 seg1: x[0,0,1] - 83.38430979411923 sublanda[0,0,0]
   - 81.46669148718047 sublanda[0,0,1] = 0
 R200: landa[0,1] - sublanda[0,1,1] - 2 s[0,1,0] >= -1
 R201: landa[0,1] - sublanda[0,1,1] + 2 s[0,1,0] <= 3
 R202: sublanda[0,1,0] - s[0,1,0] <= 0
 R203: sublanda[0,1,1] - s[0,1,0] <= 0
 R204: s[0,1,0] = 1
 R205: sublanda[0,1,0] + sublanda[0,1,1] = 1
 seg1: x[0,1,0] - 82.08214939060309 sublanda[0,1,0]
   - 71.65051361408686 sublanda[0,1,1] = 0
 seg1: x[0,1,1] - 83.38430979411923 sublanda[0,1,0]
   - 81.46669148718047 sublanda[0,1,1] = 0
 u0: landa[1,0] - landa[1,1] + min[1] - max[1] = 0
 u1: min[1] + max[1] = 1
 u2: u[1] + max[1] <= 1
 u3: - u[1] + min[1] <= 0
 R212: dc[1] = 11.57155870038168
 R213: landa[1,0] - sublanda[1,0,1] - 2 s[1,0,0] >= -1
 R214: landa[1,0] - sublanda[1,0,1] + 2 s[1,0,0] <= 3
 R215: sublanda[1,0,0] - s[1,0,0] <= 0
 R216: sublanda[1,0,1] - s[1,0,0] <= 0
 R217: s[1,0,0] = 1
 R218: sublanda[1,0,0] + sublanda[1,0,1] = 1
 seg1: x[1,0,0] - 16.81191539196283 sublanda[1,0,0]
   - 18.27869593264008 sublanda[1,0,1] = 0
 seg1: x[1,0,1] - 58.93995141099984 sublanda[1,0,0]
   - 47.46173179287659 sublanda[1,0,1] = 0
 R221: landa[1,1] - sublanda[1,1,1] - 2 s[1,1,0] >= -1
 R222: landa[1,1] - sublanda[1,1,1] + 2 s[1,1,0] <= 3
 R223: sublanda[1,1,0] - s[1,1,0] <= 0
 R224: sublanda[1,1,1] - s[1,1,0] <= 0
 R225: s[1,1,0] = 1
 R226: sublanda[1,1,0] + sublanda[1,1,1] = 1
 seg1: x[1,1,0] - 16.81191539196283 sublanda[1,1,0]
   - 18.27869593264008 sublanda[1,1,1] = 0
 seg1: x[1,1,1] - 58.93995141099984 sublanda[1,1,0]
   - 47.46173179287659 sublanda[1,1,1] = 0
 u0: landa[2,0] - landa[2,1] + min[2] - max[2] = 0
 u1: min[2] + max[2] = 4
 u2: 4 u[2] + max[2] <= 4
 u3: - 4 u[2] + min[2] <= 0
 R233: dc[2] = 59.71464081773228
 R234: landa[2,0] - sublanda[2,0,1] - 5 s[2,0,0] >= -4
 R235: landa[2,0] - sublanda[2,0,1] + 5 s[2,0,0] <= 6
 R236: landa[2,0] - sublanda[2,0,2] - 5 s[2,0,1] >= -3
 R237: landa[2,0] - sublanda[2,0,2] + 5 s[2,0,1] <= 7
 R238: landa[2,0] - sublanda[2,0,3] - 5 s[2,0,2] >= -2
 R239: landa[2,0] - sublanda[2,0,3] + 5 s[2,0,2] <= 8
 R240: landa[2,0] - sublanda[2,0,4] - 5 s[2,0,3] >= -1
 R241: landa[2,0] - sublanda[2,0,4] + 5 s[2,0,3] <= 9
 R242: sublanda[2,0,0] - s[2,0,0] <= 0
 R243: sublanda[2,0,4] - s[2,0,3] <= 0
 R244: sublanda[2,0,1] - s[2,0,0] - s[2,0,1] <= 0
 R245: sublanda[2,0,2] - s[2,0,1] - s[2,0,2] <= 0
 R246: sublanda[2,0,3] - s[2,0,2] - s[2,0,3] <= 0
 R247: s[2,0,0] + s[2,0,1] + s[2,0,2] + s[2,0,3] = 1
 R248: sublanda[2,0,0] + sublanda[2,0,1] + sublanda[2,0,2]
   + sublanda[2,0,3] + sublanda[2,0,4] = 1
 seg1: x[2,0,0] - 84.99428329969037 sublanda[2,0,0]
   - 71.25641941422468 sublanda[2,0,1] - 74.91000896238103 sublanda[2,0,2]
   - 75.8423171343736 sublanda[2,0,3] - 61.26493005325722 sublanda[2,0,4]
   = 0
 seg1: x[2,0,1] - 23.56303791149343 sublanda[2,0,0]
   - 29.4056393324224 sublanda[2,0,1] - 43.88031303903929 sublanda[2,0,2]
   - 28.9807930141573 sublanda[2,0,3] - 25.76137049036129 sublanda[2,0,4]
   = 0
 R251: landa[2,1] - sublanda[2,1,1] - 5 s[2,1,0] >= -4
 R252: landa[2,1] - sublanda[2,1,1] + 5 s[2,1,0] <= 6
 R253: landa[2,1] - sublanda[2,1,2] - 5 s[2,1,1] >= -3
 R254: landa[2,1] - sublanda[2,1,2] + 5 s[2,1,1] <= 7
 R255: landa[2,1] - sublanda[2,1,3] - 5 s[2,1,2] >= -2
 R256: landa[2,1] - sublanda[2,1,3] + 5 s[2,1,2] <= 8
 R257: landa[2,1] - sublanda[2,1,4] - 5 s[2,1,3] >= -1
 R258: landa[2,1] - sublanda[2,1,4] + 5 s[2,1,3] <= 9
 R259: sublanda[2,1,0] - s[2,1,0] <= 0
 R260: sublanda[2,1,4] - s[2,1,3] <= 0
 R261: sublanda[2,1,1] - s[2,1,0] - s[2,1,1] <= 0
 R262: sublanda[2,1,2] - s[2,1,1] - s[2,1,2] <= 0
 R263: sublanda[2,1,3] - s[2,1,2] - s[2,1,3] <= 0
 R264: s[2,1,0] + s[2,1,1] + s[2,1,2] + s[2,1,3] = 1
 R265: sublanda[2,1,0] + sublanda[2,1,1] + sublanda[2,1,2]
   + sublanda[2,1,3] + sublanda[2,1,4] = 1
 seg1: x[2,1,0] - 84.99428329969037 sublanda[2,1,0]
   - 71.25641941422468 sublanda[2,1,1] - 74.91000896238103 sublanda[2,1,2]
   - 75.8423171343736 sublanda[2,1,3] - 61.26493005325722 sublanda[2,1,4]
   = 0
 seg1: x[2,1,1] - 23.56303791149343 sublanda[2,1,0]
   - 29.4056393324224 sublanda[2,1,1] - 43.88031303903929 sublanda[2,1,2]
   - 28.9807930141573 sublanda[2,1,3] - 25.76137049036129 sublanda[2,1,4]
   = 0
 u0: landa[3,0] - landa[3,1] + min[3] - max[3] = 0
 u1: min[3] + max[3] = 3
 u2: 3 u[3] + max[3] <= 3
 u3: - 3 u[3] + min[3] <= 0
 R272: dc[3] = 31.85559879417546
 R273: landa[3,0] - sublanda[3,0,1] - 4 s[3,0,0] >= -3
 R274: landa[3,0] - sublanda[3,0,1] + 4 s[3,0,0] <= 5
 R275: landa[3,0] - sublanda[3,0,2] - 4 s[3,0,1] >= -2
 R276: landa[3,0] - sublanda[3,0,2] + 4 s[3,0,1] <= 6
 R277: landa[3,0] - sublanda[3,0,3] - 4 s[3,0,2] >= -1
 R278: landa[3,0] - sublanda[3,0,3] + 4 s[3,0,2] <= 7
 R279: sublanda[3,0,0] - s[3,0,0] <= 0
 R280: sublanda[3,0,3] - s[3,0,2] <= 0
 R281: sublanda[3,0,1] - s[3,0,0] - s[3,0,1] <= 0
 R282: sublanda[3,0,2] - s[3,0,1] - s[3,0,2] <= 0
 R283: s[3,0,0] + s[3,0,1] + s[3,0,2] = 1
 R284: sublanda[3,0,0] + sublanda[3,0,1] + sublanda[3,0,2]
   + sublanda[3,0,3] = 1
 seg1: x[3,0,0] - 84.07299344525049 sublanda[3,0,0]
   - 76.36633223000614 sublanda[3,0,1] - 82.39497656277301 sublanda[3,0,2]
   - 79.31762999436077 sublanda[3,0,3] = 0
 seg1: x[3,0,1] - 11.07179660827985 sublanda[3,0,0]
   - 18.37663161863436 sublanda[3,0,1] - 27.11783800700265 sublanda[3,0,2]
   - 16.95500475475778 sublanda[3,0,3] = 0
 R287: landa[3,1] - sublanda[3,1,1] - 4 s[3,1,0] >= -3
 R288: landa[3,1] - sublanda[3,1,1] + 4 s[3,1,0] <= 5
 R289: landa[3,1] - sublanda[3,1,2] - 4 s[3,1,1] >= -2
 R290: landa[3,1] - sublanda[3,1,2] + 4 s[3,1,1] <= 6
 R291: landa[3,1] - sublanda[3,1,3] - 4 s[3,1,2] >= -1
 R292: landa[3,1] - sublanda[3,1,3] + 4 s[3,1,2] <= 7
 R293: sublanda[3,1,0] - s[3,1,0] <= 0
 R294: sublanda[3,1,3] - s[3,1,2] <= 0
 R295: sublanda[3,1,1] - s[3,1,0] - s[3,1,1] <= 0
 R296: sublanda[3,1,2] - s[3,1,1] - s[3,1,2] <= 0
 R297: s[3,1,0] + s[3,1,1] + s[3,1,2] = 1
 R298: sublanda[3,1,0] + sublanda[3,1,1] + sublanda[3,1,2]
   + sublanda[3,1,3] = 1
 seg1: x[3,1,0] - 84.07299344525049 sublanda[3,1,0]
   - 76.36633223000614 sublanda[3,1,1] - 82.39497656277301 sublanda[3,1,2]
   - 79.31762999436077 sublanda[3,1,3] = 0
 seg1: x[3,1,1] - 11.07179660827985 sublanda[3,1,0]
   - 18.37663161863436 sublanda[3,1,1] - 27.11783800700265 sublanda[3,1,2]
   - 16.95500475475778 sublanda[3,1,3] = 0
 u0: landa[4,0] - landa[4,1] + min[4] - max[4] = 0
 u1: min[4] + max[4] = 1
 u2: u[4] + max[4] <= 1
 u3: - u[4] + min[4] <= 0
 R305: dc[4] = 14.86396908743213
 R306: landa[4,0] - sublanda[4,0,1] - 2 s[4,0,0] >= -1
 R307: landa[4,0] - sublanda[4,0,1] + 2 s[4,0,0] <= 3
 R308: sublanda[4,0,0] - s[4,0,0] <= 0
 R309: sublanda[4,0,1] - s[4,0,0] <= 0
 R310: s[4,0,0] = 1
 R311: sublanda[4,0,0] + sublanda[4,0,1] = 1
 seg1: x[4,0,0] - 78.94214063463285 sublanda[4,0,0]
   - 70.45621326221089 sublanda[4,0,1] = 0
 seg1: x[4,0,1] - 68.21892840779959 sublanda[4,0,0]
   - 56.01537918381899 sublanda[4,0,1] = 0
 R314: landa[4,1] - sublanda[4,1,1] - 2 s[4,1,0] >= -1
 R315: landa[4,1] - sublanda[4,1,1] + 2 s[4,1,0] <= 3
 R316: sublanda[4,1,0] - s[4,1,0] <= 0
 R317: sublanda[4,1,1] - s[4,1,0] <= 0
 R318: s[4,1,0] = 1
 R319: sublanda[4,1,0] + sublanda[4,1,1] = 1
 seg1: x[4,1,0] - 78.94214063463285 sublanda[4,1,0]
   - 70.45621326221089 sublanda[4,1,1] = 0
 seg1: x[4,1,1] - 68.21892840779959 sublanda[4,1,0]
   - 56.01537918381899 sublanda[4,1,1] = 0
 qc0: [ - dcc[0,1] ^2 + dif[0,1,0] ^2 + dif[0,1,1] ^2 ] <= 0
 qc1: [ - dcc[0,2] ^2 + dif[0,2,0] ^2 + dif[0,2,1] ^2 ] <= 0
 qc2: [ - dcc[0,3] ^2 + dif[0,3,0] ^2 + dif[0,3,1] ^2 ] <= 0
 qc3: [ - dcc[0,4] ^2 + dif[0,4,0] ^2 + dif[0,4,1] ^2 ] <= 0
 qc4: [ - dcc[1,0] ^2 + dif[1,0,0] ^2 + dif[1,0,1] ^2 ] <= 0
 qc5: [ - dcc[1,2] ^2 + dif[1,2,0] ^2 + dif[1,2,1] ^2 ] <= 0
 qc6: [ - dcc[1,3] ^2 + dif[1,3,0] ^2 + dif[1,3,1] ^2 ] <= 0
 qc7: [ - dcc[1,4] ^2 + dif[1,4,0] ^2 + dif[1,4,1] ^2 ] <= 0
 qc8: [ - dcc[2,0] ^2 + dif[2,0,0] ^2 + dif[2,0,1] ^2 ] <= 0
 qc9: [ - dcc[2,1] ^2 + dif[2,1,0] ^2 + dif[2,1,1] ^2 ] <= 0
 qc10: [ - dcc[2,3] ^2 + dif[2,3,0] ^2 + dif[2,3,1] ^2 ] <= 0
 qc11: [ - dcc[2,4] ^2 + dif[2,4,0] ^2 + dif[2,4,1] ^2 ] <= 0
 qc12: [ - dcc[3,0] ^2 + dif[3,0,0] ^2 + dif[3,0,1] ^2 ] <= 0
 qc13: [ - dcc[3,1] ^2 + dif[3,1,0] ^2 + dif[3,1,1] ^2 ] <= 0
 qc14: [ - dcc[3,2] ^2 + dif[3,2,0] ^2 + dif[3,2,1] ^2 ] <= 0
 qc15: [ - dcc[3,4] ^2 + dif[3,4,0] ^2 + dif[3,4,1] ^2 ] <= 0
 qc16: [ - dcc[4,0] ^2 + dif[4,0,0] ^2 + dif[4,0,1] ^2 ] <= 0
 qc17: [ - dcc[4,1] ^2 + dif[4,1,0] ^2 + dif[4,1,1] ^2 ] <= 0
 qc18: [ - dcc[4,2] ^2 + dif[4,2,0] ^2 + dif[4,2,1] ^2 ] <= 0
 qc19: [ - dcc[4,3] ^2 + dif[4,3,0] ^2 + dif[4,3,1] ^2 ] <= 0
Bounds
 sublanda[0,0,0] <= 1
 sublanda[0,1,0] <= 1
 sublanda[0,0,1] <= 1
 sublanda[0,1,1] <= 1
 sublanda[1,0,0] <= 1
 sublanda[1,1,0] <= 1
 sublanda[1,0,1] <= 1
 sublanda[1,1,1] <= 1
 sublanda[2,0,0] <= 1
 sublanda[2,1,0] <= 1
 sublanda[2,0,1] <= 1
 sublanda[2,1,1] <= 1
 sublanda[2,0,2] <= 1
 sublanda[2,1,2] <= 1
 sublanda[2,0,3] <= 1
 sublanda[2,1,3] <= 1
 sublanda[2,0,4] <= 1
 sublanda[2,1,4] <= 1
 sublanda[3,0,0] <= 1
 sublanda[3,1,0] <= 1
 sublanda[3,0,1] <= 1
 sublanda[3,1,1] <= 1
 sublanda[3,0,2] <= 1
 sublanda[3,1,2] <= 1
 sublanda[3,0,3] <= 1
 sublanda[3,1,3] <= 1
 sublanda[4,0,0] <= 1
 sublanda[4,1,0] <= 1
 sublanda[4,0,1] <= 1
 sublanda[4,1,1] <= 1
 sc[0] <= 4
 sc[1] <= 4
 sc[2] <= 4
 sc[3] <= 4
 sc[4] <= 4
Binaries
 z[0,1] z[0,2] z[0,3] z[0,4] z[1,0] z[1,2] z[1,3] z[1,4] z[2,0] z[2,1]
 z[2,3] z[2,4] z[3,0] z[3,1] z[3,2] z[3,4] z[4,0] z[4,1] z[4,2] z[4,3]
 s[0,0,0] s[0,1,0] s[1,0,0] s[1,1,0] s[2,0,0] s[2,1,0] s[2,0,1] s[2,1,1]
 s[2,0,2] s[2,1,2] s[2,0,3] s[2,1,3] s[3,0,0] s[3,1,0] s[3,0,1] s[3,1,1]
 s[3,0,2] s[3,1,2] s[4,0,0] s[4,1,0] u[0] u[1] u[2] u[3] u[4]
End
